r = [
0,322,294,355,54,167,91,6,234,214,88,284,69,88,37,176,224,154,158,303,181,249,313,89,236,214,0
];
p = [
0,24,23,7,3,21,7,28,25,29,24,15,14,18,1,13,17,3,23,3,14,14,23,22,26,1,0
];
e = [
0,1,13,7,3,7,19,14,2,5,16,18,1,3,11,4,18,1,9,14,17,2,7,11,19,15,0
];
d = [
0,354,320,378,76,223,140,61,270,253,124,326,90,146,81,234,260,200,210,355,202,299,347,147,272,245,379
];
d_bar = [
0,356,322,379,77,225,141,64,273,256,126,328,91,148,82,235,262,201,212,356,203,300,349,149,275,246,379
];
w = [
0,0.5,6.5,7,3,3.5,19,4.666666667,0.666666667,1.666666667,8,9,1,1.5,11,4,9,1,4.5,14,17,2,3.5,5.5,6.333333333,15,0
];
